
******************************************************************************
This program contains Ipopt, a library for large-scale nonlinear optimization.
 Ipopt is released as open source code under the Eclipse Public License (EPL).
         For more information visit https://github.com/coin-or/Ipopt
******************************************************************************

This is Ipopt version 3.14.19, running with linear solver MUMPS 5.8.1.

Number of nonzeros in equality constraint Jacobian...:     4389
Number of nonzeros in inequality constraint Jacobian.:        0
Number of nonzeros in Lagrangian Hessian.............:     1050

Total number of variables............................:     1287
                     variables with only lower bounds:        0
                variables with lower and upper bounds:      457
                     variables with only upper bounds:        0
Total number of equality constraints.................:     1274
Total number of inequality constraints...............:        0
        inequality constraints with only lower bounds:        0
   inequality constraints with lower and upper bounds:        0
        inequality constraints with only upper bounds:        0

iter    objective    inf_pr   inf_du lg(mu)  ||d||  lg(rg) alpha_du alpha_pr  ls
   0  9.8038690e+00 9.30e+01 2.49e-04  -1.0 0.00e+00    -  0.00e+00 0.00e+00   0
   1  9.8062185e+00 8.54e+00 6.04e+01  -1.0 9.17e+01    -  1.61e-02 1.00e+00h  1
   2  9.8077262e+00 9.74e-01 2.23e-02  -1.0 7.86e+00    -  9.90e-01 1.00e+00h  1
   3  9.8266293e+00 9.01e-02 1.25e-02  -1.0 7.20e+00    -  1.00e+00 1.00e+00h  1
   4  9.8263377e+00 1.60e-01 8.92e-04  -2.5 4.02e-01    -  1.00e+00 1.00e+00h  1
   5  9.8196571e+00 1.18e-02 1.36e-03  -2.5 1.87e+00    -  1.00e+00 1.00e+00h  1
   6  9.8079386e+00 6.48e-03 9.51e-02  -3.8 3.66e+00    -  5.81e-01 1.00e+00h  1
   7  9.7977624e+00 9.67e-03 5.41e-03  -3.8 5.50e+00    -  1.00e+00 1.00e+00h  1
   8  9.7935273e+00 3.53e-03 8.73e-04  -3.8 2.21e+00    -  1.00e+00 1.00e+00h  1
   9  9.7933722e+00 8.58e-06 1.70e-06  -3.8 2.48e-01    -  1.00e+00 1.00e+00h  1
iter    objective    inf_pr   inf_du lg(mu)  ||d||  lg(rg) alpha_du alpha_pr  ls
  10  9.7903564e+00 1.07e-03 5.23e-04  -5.7 1.73e+00    -  9.15e-01 1.00e+00h  1
  11  9.7900693e+00 1.21e-05 4.84e-06  -5.7 2.05e-01    -  1.00e+00 1.00e+00h  1
  12  9.7900225e+00 2.59e-07 1.38e-07  -8.6 3.01e-02    -  1.00e+00 1.00e+00h  1
  13  9.7900224e+00 3.50e-13 1.20e-13  -8.6 5.09e-05    -  1.00e+00 1.00e+00h  1

Number of Iterations....: 13

                                   (scaled)                 (unscaled)
Objective...............:   9.7900224230637782e+00    9.7900224230637782e+00
Dual infeasibility......:   1.1984857550828565e-13    1.1984857550828565e-13
Constraint violation....:   3.5038638657169940e-13    3.5038638657169940e-13
Variable bound violation:   0.0000000000000000e+00    0.0000000000000000e+00
Complementarity.........:   2.5414043137626530e-09    2.5414043137626530e-09
Overall NLP error.......:   2.5414043137626530e-09    2.5414043137626530e-09


Number of objective function evaluations             = 14
Number of objective gradient evaluations             = 14
Number of equality constraint evaluations            = 14
Number of inequality constraint evaluations          = 0
Number of equality constraint Jacobian evaluations   = 14
Number of inequality constraint Jacobian evaluations = 0
Number of Lagrangian Hessian evaluations             = 13
Total seconds in IPOPT                               = 0.060

EXIT: Optimal Solution Found.
